Problem:    Chitarre
Rows:       5
Columns:    4
Non-zeros:  17
Status:     OPTIMAL
Objective:  z = 14542.85714 (MAXimum)

   No.   Row name   St   Activity     Lower bound   Upper bound    Marginal
------ ------------ -- ------------- ------------- ------------- -------------
     1 chitarreProdotte
                    B        102.857           100               
     2 tempoUsato1  NU           400                         400       5.71429 
     3 tempoUsato2  NU           200                         200            15 
     4 tempoUsato3  NU           120                         120       77.1429 
     5 z            B        14542.9                             

   No. Column name  St   Activity     Lower bound   Upper bound    Marginal
------ ------------ -- ------------- ------------- ------------- -------------
     1 cP[1]        B        5.71429             0               
     2 cP[2]        B        97.1429             0               
     3 cP[3]        NL             0             0                    -5.35714 
     4 nA           B              5             0               

Karush-Kuhn-Tucker optimality conditions:

KKT.PE: max.abs.err = 5.68e-014 on row 2
        max.rel.err = 7.10e-017 on row 2
        High quality

KKT.PB: max.abs.err = 0.00e+000 on row 0
        max.rel.err = 0.00e+000 on row 0
        High quality

KKT.DE: max.abs.err = 1.14e-013 on column 4
        max.rel.err = 9.47e-017 on column 4
        High quality

KKT.DB: max.abs.err = 0.00e+000 on row 0
        max.rel.err = 0.00e+000 on row 0
        High quality

End of output
